&control
  calculation = 'scf'
  restart_mode = 'from_scratch'
  prefix = 'pwscf'
  tstress = .true.
  tprnfor = .true.
  pseudo_dir = '/home/nshouta/PWSCF/pseudo_psl'
  outdir = './work'
  wf_collect = .true.
  disk_io = 'low'
/
&system
  ibrav = 0
  A =    3.90089
  nat = 27
  ntyp = 3
  ecutwfc = 48.0
  ecutrho = 641.0
  occupations = 'smearing'
  smearing = 'm-p'
  degauss = 0.010
/
&electrons
  mixing_mode = 'plain'
  mixing_beta = 0.1
  conv_thr = 1.0d-8
/
CELL_PARAMETERS {alat}
  1.000000000000000   0.000000000000000   0.000000000000000 
  0.000000000000000   1.000000000000000   0.000000000000000 
  0.000000000000001   0.000000000000001  11.000000000000000 

ATOMIC_SPECIES
   V   50.94150   V.pbesol-spnl-kjpaw_psl.1.0.0.UPF
  Sr   87.62000  Sr.pbesol-spn-kjpaw_psl.1.0.0.UPF
   O   15.99900   O.pbesol-n-kjpaw_psl.1.0.0.UPF

ATOMIC_POSITIONS {crystal}
Sr   0.000000000000000   0.000000000000000   0.068181820000000 
Sr   0.000000000000000   0.000000000000000   0.159090910000000 
Sr   0.000000000000000   0.000000000000000   0.250000000000000 
Sr   0.000000000000000   0.000000000000000   0.340909090000000 
Sr   0.000000000000000   0.000000000000000   0.431818180000000 
Sr   0.000000000000000   0.000000000000000   0.522727270000000 
 V   0.500000000000000   0.500000000000000   0.113636360000000 
 V   0.500000000000000   0.500000000000000   0.204545450000000 
 V   0.500000000000000   0.500000000000000   0.295454550000000 
 V   0.500000000000000   0.500000000000000   0.386363640000000 
 V   0.500000000000000   0.500000000000000   0.477272730000000 
 O   0.500000000000000   0.500000000000000   0.068181820000000 
 O   0.000000000000000   0.500000000000000   0.113636360000000 
 O   0.500000000000000   0.000000000000000   0.113636360000000 
 O   0.500000000000000   0.500000000000000   0.159090910000000 
 O   0.000000000000000   0.500000000000000   0.204545450000000 
 O   0.500000000000000   0.000000000000000   0.204545450000000 
 O   0.500000000000000   0.500000000000000   0.250000000000000 
 O   0.000000000000000   0.500000000000000   0.295454550000000 
 O   0.500000000000000   0.000000000000000   0.295454550000000 
 O   0.500000000000000   0.500000000000000   0.340909090000000 
 O   0.000000000000000   0.500000000000000   0.386363640000000 
 O   0.500000000000000   0.000000000000000   0.386363640000000 
 O   0.500000000000000   0.500000000000000   0.431818180000000 
 O   0.000000000000000   0.500000000000000   0.477272730000000 
 O   0.500000000000000   0.000000000000000   0.477272730000000 
 O   0.500000000000000   0.500000000000000   0.522727270000000 

K_POINTS automatic
11 11 1  0 0 0

