&control
  calculation = 'bands'
  restart_mode = 'from_scratch'
  prefix = 'pwscf'
  tstress = .true.
  tprnfor = .true.
  pseudo_dir = '/home/nshouta/PWSCF/pseudo_psl'
  outdir = './work'
  wf_collect = .true.
  disk_io = 'low'
  verbosity = 'high'
/
&system
  nbnd = 39
  ibrav = 0
  A =    3.90089
  nat = 5
  ntyp = 3
  ecutwfc = 48.0
  ecutrho = 641.0
  occupations = 'smearing'
  smearing = 'm-p'
  degauss = 0.010
/
&electrons
  mixing_mode = 'plain'
  mixing_beta = 0.1
  conv_thr = 1.d-8
/
CELL_PARAMETERS {alat}
  1.000000000000000   0.000000000000000   0.000000000000000 
  0.000000000000000   1.000000000000000   0.000000000000000 
  0.000000000000000   0.000000000000000   1.000000000000000 

ATOMIC_SPECIES
   O   15.99900   O.pbesol-n-kjpaw_psl.1.0.0.UPF
   V   50.94150   V.pbesol-spnl-kjpaw_psl.1.0.0.UPF
  Sr   87.62000  Sr.pbesol-spn-kjpaw_psl.1.0.0.UPF

ATOMIC_POSITIONS {crystal}
Sr   0.000000000000000   0.000000000000000   0.000000000000000 
 V   0.500000000000000   0.500000000000000   0.500000000000000 
 O   0.000000000000000   0.500000000000000   0.500000000000000 
 O   0.500000000000000   0.000000000000000   0.500000000000000 
 O   0.500000000000000   0.500000000000000   0.000000000000000 

K_POINTS {crystal_b}
8
   0.0000000000    0.0000000000    0.0000000000    20    !  G
   0.0000000000    0.5000000000    0.0000000000    20    !  X
   0.5000000000    0.5000000000    0.0000000000    20    !  M
   0.0000000000    0.0000000000    0.0000000000    20    !  G
   0.5000000000    0.5000000000    0.5000000000    20    !  R
   0.0000000000    0.5000000000    0.0000000000     0    !  X
   0.5000000000    0.5000000000    0.5000000000    20    !  R
   0.5000000000    0.5000000000    0.0000000000    20    !  M

